6

0   4   8   7   24   3
4   0   16   16   4   17
8   16   0   0   4   14
7   16   0   0   12   1
24   4   4   12   0   18
3   17   14   1   18   0

0   30   61   45   38   47
30   0   31   33   16   17
61   31   0   16   23   38
45   33   16   0   17   44
38   16   23   17   0   27
47   17   38   44   27   0